(set-logic QF_LIA)
(set-option :use-extended-signature true)
(set-info :status unsat)
(declare-fun x () Int)
(declare-fun b () Bool)
(assert (or b (= x 5)))
(assert (or (not b) (= x 5)))
(assert (= 0 (mod x 2)))
(check-sat)
